asp/input/in_60_30_9_1.lp
#const n = 60.
#const k = 30.
#const h = 9.
tile(1,8,25).
tile(2,17,19).
tile(3,26,23).
tile(4,18,26).
tile(5,21,12).
tile(6,7,30).
tile(7,10,15).
tile(8,18,5).
tile(9,10,17).
tile(10,5,29).
tile(11,19,27).
tile(12,19,11).
tile(13,1,4).
tile(14,15,12).
tile(15,8,28).
tile(16,25,6).
tile(17,27,25).
tile(18,14,8).
tile(19,26,8).
tile(20,18,21).
tile(21,10,30).
tile(22,4,6).
tile(23,9,26).
tile(24,19,1).
tile(25,18,26).
tile(26,6,19).
tile(27,1,17).
tile(28,5,26).
tile(29,29,27).
tile(30,15,20).
tile(31,15,12).
tile(32,5,1).
tile(33,3,23).
tile(34,25,25).
tile(35,28,7).
tile(36,10,20).
tile(37,30,22).
tile(38,25,26).
tile(39,6,19).
tile(40,24,22).
tile(41,23,11).
tile(42,2,28).
tile(43,18,18).
tile(44,1,1).
tile(45,15,7).
tile(46,14,30).
tile(47,13,20).
tile(48,20,19).
tile(49,18,14).
tile(50,9,2).
tile(51,29,9).
tile(52,5,19).
tile(53,5,13).
tile(54,8,30).
tile(55,13,14).
tile(56,8,29).
tile(57,24,28).
tile(58,17,15).
tile(59,5,9).
tile(60,13,24).
