instances/in_60_30_9_1.dzn
n = 60;
k = 30;
h = 9;
tiles = array2d(1..n, 1..2,
[ 8,25
, 17,19
, 26,23
, 18,26
, 21,12
, 7,30
, 10,15
, 18,5
, 10,17
, 5,29
, 19,27
, 19,11
, 1,4
, 15,12
, 8,28
, 25,6
, 27,25
, 14,8
, 26,8
, 18,21
, 10,30
, 4,6
, 9,26
, 19,1
, 18,26
, 6,19
, 1,17
, 5,26
, 29,27
, 15,20
, 15,12
, 5,1
, 3,23
, 25,25
, 28,7
, 10,20
, 30,22
, 25,26
, 6,19
, 24,22
, 23,11
, 2,28
, 18,18
, 1,1
, 15,7
, 14,30
, 13,20
, 20,19
, 18,14
, 9,2
, 29,9
, 5,19
, 5,13
, 8,30
, 13,14
, 8,29
, 24,28
, 17,15
, 5,9
, 13,24
]);